10
1 0 428
2 0 959
2 1 1195
3 0 1101
3 1 456
3 2 759
4 0 828
4 1 737
4 2 361
4 3 1022
5 0 874
5 1 183
5 2 1219
5 3 555
5 4 1168
6 0 504
6 1 534
6 2 641
6 3 555
6 4 393
6 5 409
7 0 571
7 1 364
7 2 251
7 3 104
7 4 232
7 5 668
7 6 647
8 0 749
8 1 487
8 2 625
8 3 131
8 4 374
8 5 56
8 6 423
8 7 235
9 0 1256
9 1 757
9 2 101
9 3 229
9 4 731
9 5 1268
9 6 1110
9 7 366
9 8 877
